ilp_joint/output/weathering_ilp.lp
Maximize
  0.00666508407477834 Z_338_0_0 + 0.00233333116738261 Z_338_0_1
   + 0.0353215665675937 Z_338_0_2 + 0.827034954367224 Z_338_0_3
   + 0.00226445210334331 Z_350_0_0 + 0.0157650284081568 Z_350_0_1
   + 0.2966537112183285 Z_350_0_2 + 0.7760007603238356 Z_350_0_3
   + 0.00782443987594437 Z_24_0_0 + 0.0772633431887209 Z_24_0_1
   + 0.0119762163935562 Z_24_0_2 + 0.3398454167049129 Z_24_0_3
   + 0.8123489577707426 Z_194_0_0 + 0.0391874203899947 Z_194_0_1
   + 0.038094194071246 Z_194_0_2 + 0.1008187572424249 Z_194_0_3
   + 0.00991702870669304 Z_194_1_0 + 0.0091382413657532 Z_194_1_1
   + 0.7907119784203978 Z_194_1_2 + 0.0346210993930118 Z_194_1_3
   + 0.00689089940878582 Z_1_0_0 + 0.0403292486660773 Z_1_0_1
   + 0.0666423295943546 Z_1_0_2 + 0.0308348991263344 Z_1_0_3
   + 0.00486941797617729 Z_427_0_0 + 0.00391051320054749 Z_427_0_1
   + 0.3957139321775614 Z_427_0_2 + 0.1283829394207398 Z_427_0_3
   + 0.0855030893531026 Z_429_0_0 + 0.24062064997785 Z_429_0_1
   + 0.116438936170286 Z_429_0_2 + 0.0117592276967581 Z_429_0_3
   + 0.0132797970164752 Z_197_0_0 + 0.0128389696644448 Z_197_0_1
   + 0.0568588201932358 Z_197_0_2 + 0.7829465855410178 Z_197_0_3
   + 0.00390966616450489 Z_562_0_0 + 0.00547709266819793 Z_562_0_1
   + 0.0367997750792016 Z_562_0_2 + 0.0465249185610022 Z_562_0_3
   + 0.0117910821482038 Z_562_1_0 + 0.0051360488448968 Z_562_1_1
   + 0.0261605390875164 Z_562_1_2 + 0.0857722897620183 Z_562_1_3
   + 0.00782443987594437 Z_562_2_0 + 0.0772633431887209 Z_562_2_1
   + 0.0139890935617743 Z_562_2_2 + 0.3644862734700283 Z_562_2_3
   + 0.00782443987594437 Z_562_3_0 + 0.0772633431887209 Z_562_3_1
   + 0.0139890935617743 Z_562_3_2 + 0.3644862734700283 Z_562_3_3 + [
   0.0424540597879944 Z_338_0_0 * Z_350_0_0
   + 0.0470013342678386 Z_338_0_0 * Z_24_0_0
   + 0.0571045940352924 Z_338_0_0 * Z_427_0_0
   + 0.0655135152681349 Z_338_0_0 * Z_197_0_0
   + 0.0876396089442571 Z_338_0_0 * Z_562_2_0
   + 0.0876396089442571 Z_338_0_0 * Z_562_3_0
   + 0.0424540597879944 Z_338_0_1 * Z_350_0_1
   + 0.0470013342678386 Z_338_0_1 * Z_24_0_1
   + 0.0571045940352924 Z_338_0_1 * Z_427_0_1
   + 0.0655135152681349 Z_338_0_1 * Z_197_0_1
   + 0.0876396089442571 Z_338_0_1 * Z_562_2_1
   + 0.0876396089442571 Z_338_0_1 * Z_562_3_1
   + 0.0424540597879944 Z_338_0_2 * Z_350_0_2
   + 0.0470013342678386 Z_338_0_2 * Z_24_0_2
   + 0.0571045940352924 Z_338_0_2 * Z_427_0_2
   + 0.0655135152681349 Z_338_0_2 * Z_197_0_2
   + 0.0876396089442571 Z_338_0_2 * Z_562_2_2
   + 0.0876396089442571 Z_338_0_2 * Z_562_3_2
   + 0.0424540597879944 Z_338_0_3 * Z_350_0_3
   + 0.0470013342678386 Z_338_0_3 * Z_24_0_3
   + 0.0571045940352924 Z_338_0_3 * Z_427_0_3
   + 0.0655135152681349 Z_338_0_3 * Z_197_0_3
   + 0.0876396089442571 Z_338_0_3 * Z_562_2_3
   + 0.0876396089442571 Z_338_0_3 * Z_562_3_3
   + 0.237438037259553 Z_350_0_0 * Z_24_0_0
   + 0.1777777777777777 Z_350_0_0 * Z_194_0_0
   + 2.5521845085839801e-04 Z_350_0_0 * Z_194_1_0
   + 5.15565e-05 Z_350_0_0 * Z_1_0_0
   + 0.0578589783075393 Z_350_0_0 * Z_427_0_0
   + 0.2723269593060951 Z_350_0_0 * Z_197_0_0 + 0.025 Z_350_0_0 * Z_562_0_0
   + 0.0246933890876749 Z_350_0_0 * Z_562_2_0
   + 0.0246933890876749 Z_350_0_0 * Z_562_3_0
   + 0.237438037259553 Z_350_0_1 * Z_24_0_1
   + 0.1777777777777777 Z_350_0_1 * Z_194_0_1
   + 2.5521845085839801e-04 Z_350_0_1 * Z_194_1_1
   + 5.15565e-05 Z_350_0_1 * Z_1_0_1
   + 0.0578589783075393 Z_350_0_1 * Z_427_0_1
   + 0.2723269593060951 Z_350_0_1 * Z_197_0_1 + 0.025 Z_350_0_1 * Z_562_0_1
   + 0.0246933890876749 Z_350_0_1 * Z_562_2_1
   + 0.0246933890876749 Z_350_0_1 * Z_562_3_1
   + 0.237438037259553 Z_350_0_2 * Z_24_0_2
   + 0.1777777777777777 Z_350_0_2 * Z_194_0_2
   + 2.5521845085839801e-04 Z_350_0_2 * Z_194_1_2
   + 5.15565e-05 Z_350_0_2 * Z_1_0_2
   + 0.0578589783075393 Z_350_0_2 * Z_427_0_2
   + 0.2723269593060951 Z_350_0_2 * Z_197_0_2 + 0.025 Z_350_0_2 * Z_562_0_2
   + 0.0246933890876749 Z_350_0_2 * Z_562_2_2
   + 0.0246933890876749 Z_350_0_2 * Z_562_3_2
   + 0.237438037259553 Z_350_0_3 * Z_24_0_3
   + 0.1777777777777777 Z_350_0_3 * Z_194_0_3
   + 2.5521845085839801e-04 Z_350_0_3 * Z_194_1_3
   + 5.15565e-05 Z_350_0_3 * Z_1_0_3
   + 0.0578589783075393 Z_350_0_3 * Z_427_0_3
   + 0.2723269593060951 Z_350_0_3 * Z_197_0_3 + 0.025 Z_350_0_3 * Z_562_0_3
   + 0.0246933890876749 Z_350_0_3 * Z_562_2_3
   + 0.0246933890876749 Z_350_0_3 * Z_562_3_3 + 0.4 Z_24_0_0 * Z_194_0_0
   + 0.0605617220094433 Z_24_0_0 * Z_427_0_0
   + 0.2722901492354359 Z_24_0_0 * Z_197_0_0
   + 5.486968449931411e-04 Z_24_0_0 * Z_562_0_0
   + 0.0664187388196052 Z_24_0_0 * Z_562_2_0
   + 0.0664187388196052 Z_24_0_0 * Z_562_3_0 + 0.4 Z_24_0_1 * Z_194_0_1
   + 0.0605617220094433 Z_24_0_1 * Z_427_0_1
   + 0.2722901492354359 Z_24_0_1 * Z_197_0_1
   + 5.486968449931411e-04 Z_24_0_1 * Z_562_0_1
   + 0.0664187388196052 Z_24_0_1 * Z_562_2_1
   + 0.0664187388196052 Z_24_0_1 * Z_562_3_1 + 0.4 Z_24_0_2 * Z_194_0_2
   + 0.0605617220094433 Z_24_0_2 * Z_427_0_2
   + 0.2722901492354359 Z_24_0_2 * Z_197_0_2
   + 5.486968449931411e-04 Z_24_0_2 * Z_562_0_2
   + 0.0664187388196052 Z_24_0_2 * Z_562_2_2
   + 0.0664187388196052 Z_24_0_2 * Z_562_3_2 + 0.4 Z_24_0_3 * Z_194_0_3
   + 0.0605617220094433 Z_24_0_3 * Z_427_0_3
   + 0.2722901492354359 Z_24_0_3 * Z_197_0_3
   + 5.486968449931411e-04 Z_24_0_3 * Z_562_0_3
   + 0.0664187388196052 Z_24_0_3 * Z_562_2_3
   + 0.0664187388196052 Z_24_0_3 * Z_562_3_3 + 0.4 Z_194_0_0 * Z_427_0_0
   + 2.60159e-05 Z_194_0_0 * Z_197_0_0
   + 5.486968449931411e-04 Z_194_0_0 * Z_562_0_0
   + 0.4 Z_194_0_1 * Z_427_0_1 + 2.60159e-05 Z_194_0_1 * Z_197_0_1
   + 5.486968449931411e-04 Z_194_0_1 * Z_562_0_1
   + 0.4 Z_194_0_2 * Z_427_0_2 + 2.60159e-05 Z_194_0_2 * Z_197_0_2
   + 5.486968449931411e-04 Z_194_0_2 * Z_562_0_2
   + 0.4 Z_194_0_3 * Z_427_0_3 + 2.60159e-05 Z_194_0_3 * Z_197_0_3
   + 5.486968449931411e-04 Z_194_0_3 * Z_562_0_3
   + 0.2221078675907603 Z_194_1_0 * Z_427_0_0
   + 0.016181175213246 Z_194_1_0 * Z_197_0_0
   + 0.00204081632653061 Z_194_1_0 * Z_562_0_0
   + 7.95129e-05 Z_194_1_0 * Z_562_2_0 + 7.95129e-05 Z_194_1_0 * Z_562_3_0
   + 0.2221078675907603 Z_194_1_1 * Z_427_0_1
   + 0.016181175213246 Z_194_1_1 * Z_197_0_1
   + 0.00204081632653061 Z_194_1_1 * Z_562_0_1
   + 7.95129e-05 Z_194_1_1 * Z_562_2_1 + 7.95129e-05 Z_194_1_1 * Z_562_3_1
   + 0.2221078675907603 Z_194_1_2 * Z_427_0_2
   + 0.016181175213246 Z_194_1_2 * Z_197_0_2
   + 0.00204081632653061 Z_194_1_2 * Z_562_0_2
   + 7.95129e-05 Z_194_1_2 * Z_562_2_2 + 7.95129e-05 Z_194_1_2 * Z_562_3_2
   + 0.2221078675907603 Z_194_1_3 * Z_427_0_3
   + 0.016181175213246 Z_194_1_3 * Z_197_0_3
   + 0.00204081632653061 Z_194_1_3 * Z_562_0_3
   + 7.95129e-05 Z_194_1_3 * Z_562_2_3 + 7.95129e-05 Z_194_1_3 * Z_562_3_3
   + 0.00404506574690512 Z_1_0_0 * Z_427_0_0
   + 7.9699176993661884e-04 Z_1_0_0 * Z_562_0_0
   + 0.00404506574690512 Z_1_0_1 * Z_427_0_1
   + 7.9699176993661884e-04 Z_1_0_1 * Z_562_0_1
   + 0.00404506574690512 Z_1_0_2 * Z_427_0_2
   + 7.9699176993661884e-04 Z_1_0_2 * Z_562_0_2
   + 0.00404506574690512 Z_1_0_3 * Z_427_0_3
   + 7.9699176993661884e-04 Z_1_0_3 * Z_562_0_3
   + 0.1001651210160815 Z_427_0_0 * Z_197_0_0
   + 5.486968449931411e-04 Z_427_0_0 * Z_562_0_0
   + 0.055315157957708 Z_427_0_0 * Z_562_2_0
   + 0.055315157957708 Z_427_0_0 * Z_562_3_0
   + 0.1001651210160815 Z_427_0_1 * Z_197_0_1
   + 5.486968449931411e-04 Z_427_0_1 * Z_562_0_1
   + 0.055315157957708 Z_427_0_1 * Z_562_2_1
   + 0.055315157957708 Z_427_0_1 * Z_562_3_1
   + 0.1001651210160815 Z_427_0_2 * Z_197_0_2
   + 5.486968449931411e-04 Z_427_0_2 * Z_562_0_2
   + 0.055315157957708 Z_427_0_2 * Z_562_2_2
   + 0.055315157957708 Z_427_0_2 * Z_562_3_2
   + 0.1001651210160815 Z_427_0_3 * Z_197_0_3
   + 5.486968449931411e-04 Z_427_0_3 * Z_562_0_3
   + 0.055315157957708 Z_427_0_3 * Z_562_2_3
   + 0.055315157957708 Z_427_0_3 * Z_562_3_3
   + 0.00474139955518002 Z_197_0_0 * Z_562_1_0
   + 0.1376411290414216 Z_197_0_0 * Z_562_2_0
   + 0.1376411290414216 Z_197_0_0 * Z_562_3_0
   + 0.00474139955518002 Z_197_0_1 * Z_562_1_1
   + 0.1376411290414216 Z_197_0_1 * Z_562_2_1
   + 0.1376411290414216 Z_197_0_1 * Z_562_3_1
   + 0.00474139955518002 Z_197_0_2 * Z_562_1_2
   + 0.1376411290414216 Z_197_0_2 * Z_562_2_2
   + 0.1376411290414216 Z_197_0_2 * Z_562_3_2
   + 0.00474139955518002 Z_197_0_3 * Z_562_1_3
   + 0.1376411290414216 Z_197_0_3 * Z_562_2_3
   + 0.1376411290414216 Z_197_0_3 * Z_562_3_3 ] / 2 
Subject To
 constraint1_3380: Z_338_0_0 + Z_338_0_1 + Z_338_0_2 + Z_338_0_3 <= 1
 constraint1_3500: Z_350_0_0 + Z_350_0_1 + Z_350_0_2 + Z_350_0_3 <= 1
 constraint1_240: Z_24_0_0 + Z_24_0_1 + Z_24_0_2 + Z_24_0_3 <= 1
 constraint1_1940: Z_194_0_0 + Z_194_0_1 + Z_194_0_2 + Z_194_0_3 <= 1
 constraint1_1941: Z_194_1_0 + Z_194_1_1 + Z_194_1_2 + Z_194_1_3 <= 1
 constraint1_10: Z_1_0_0 + Z_1_0_1 + Z_1_0_2 + Z_1_0_3 <= 1
 constraint1_4270: Z_427_0_0 + Z_427_0_1 + Z_427_0_2 + Z_427_0_3 <= 1
 constraint1_4290: Z_429_0_0 + Z_429_0_1 + Z_429_0_2 + Z_429_0_3 <= 1
 constraint1_1970: Z_197_0_0 + Z_197_0_1 + Z_197_0_2 + Z_197_0_3 <= 1
 constraint1_5620: Z_562_0_0 + Z_562_0_1 + Z_562_0_2 + Z_562_0_3 <= 1
 constraint1_5621: Z_562_1_0 + Z_562_1_1 + Z_562_1_2 + Z_562_1_3 <= 1
 constraint1_5622: Z_562_2_0 + Z_562_2_1 + Z_562_2_2 + Z_562_2_3 <= 1
 constraint1_5623: Z_562_3_0 + Z_562_3_1 + Z_562_3_2 + Z_562_3_3 <= 1
 constraint2_3380: Z_338_0_0 <= 1
 constraint2_3381: Z_338_0_1 <= 1
 constraint2_3382: Z_338_0_2 <= 1
 constraint2_3383: Z_338_0_3 <= 1
 constraint2_3500: Z_350_0_0 <= 1
 constraint2_3501: Z_350_0_1 <= 1
 constraint2_3502: Z_350_0_2 <= 1
 constraint2_3503: Z_350_0_3 <= 1
 constraint2_240: Z_24_0_0 <= 1
 constraint2_241: Z_24_0_1 <= 1
 constraint2_242: Z_24_0_2 <= 1
 constraint2_243: Z_24_0_3 <= 1
 constraint2_1940: Z_194_0_0 + Z_194_1_0 <= 1
 constraint2_1941: Z_194_0_1 + Z_194_1_1 <= 1
 constraint2_1942: Z_194_0_2 + Z_194_1_2 <= 1
 constraint2_1943: Z_194_0_3 + Z_194_1_3 <= 1
 constraint2_10: Z_1_0_0 <= 1
 constraint2_11: Z_1_0_1 <= 1
 constraint2_12: Z_1_0_2 <= 1
 constraint2_13: Z_1_0_3 <= 1
 constraint2_4270: Z_427_0_0 <= 1
 constraint2_4271: Z_427_0_1 <= 1
 constraint2_4272: Z_427_0_2 <= 1
 constraint2_4273: Z_427_0_3 <= 1
 constraint2_4290: Z_429_0_0 <= 1
 constraint2_4291: Z_429_0_1 <= 1
 constraint2_4292: Z_429_0_2 <= 1
 constraint2_4293: Z_429_0_3 <= 1
 constraint2_1970: Z_197_0_0 <= 1
 constraint2_1971: Z_197_0_1 <= 1
 constraint2_1972: Z_197_0_2 <= 1
 constraint2_1973: Z_197_0_3 <= 1
 constraint2_5620: Z_562_0_0 + Z_562_1_0 + Z_562_2_0 + Z_562_3_0 <= 1
 constraint2_5621: Z_562_0_1 + Z_562_1_1 + Z_562_2_1 + Z_562_3_1 <= 1
 constraint2_5622: Z_562_0_2 + Z_562_1_2 + Z_562_2_2 + Z_562_3_2 <= 1
 constraint2_5623: Z_562_0_3 + Z_562_1_3 + Z_562_2_3 + Z_562_3_3 <= 1
Bounds
Binaries
 Z_338_0_0 Z_338_0_1 Z_338_0_2 Z_338_0_3 Z_350_0_0 Z_350_0_1 Z_350_0_2
 Z_350_0_3 Z_24_0_0 Z_24_0_1 Z_24_0_2 Z_24_0_3 Z_194_0_0 Z_194_0_1
 Z_194_0_2 Z_194_0_3 Z_194_1_0 Z_194_1_1 Z_194_1_2 Z_194_1_3 Z_1_0_0
 Z_1_0_1 Z_1_0_2 Z_1_0_3 Z_427_0_0 Z_427_0_1 Z_427_0_2 Z_427_0_3 Z_429_0_0
 Z_429_0_1 Z_429_0_2 Z_429_0_3 Z_197_0_0 Z_197_0_1 Z_197_0_2 Z_197_0_3
 Z_562_0_0 Z_562_0_1 Z_562_0_2 Z_562_0_3 Z_562_1_0 Z_562_1_1 Z_562_1_2
 Z_562_1_3 Z_562_2_0 Z_562_2_1 Z_562_2_2 Z_562_2_3 Z_562_3_0 Z_562_3_1
 Z_562_3_2 Z_562_3_3
End
