ilp_joint/output/weathering_ilp.sol
# Solution for model weathering_srl_ilp
# Objective value = 3.3110632265852846e+00
Z_95_0_0 1
Z_95_0_1 0
Z_95_0_2 0
Z_95_0_3 0
Z_95_0_4 0
Z_338_0_0 0
Z_338_0_1 0
Z_338_0_2 0
Z_338_0_3 1
Z_338_0_4 0
Z_332_0_0 1
Z_332_0_1 0
Z_332_0_2 0
Z_332_0_3 0
Z_332_0_4 0
Z_456_0_0 0
Z_456_0_1 0
Z_456_0_2 0
Z_456_0_3 1
Z_456_0_4 0
